\ENCODING=ISO-8859-1
\Problem name: IloCplex

Minimize
 obj: x(1) + x(2) + x(3) + x(4) + x(5) + x(6) + 4 x(7) + 4 x(8) + 2 x(9)
      + 4 x(10) + 4 x(11) + 2 x(12) + 7 x(13) + 7 x(14) + 0 z(0)(0) + 2 z(0)(1)
      + 2 z(0)(2) + 2 z(0)(3) + 4 z(0)(4) + 4 z(0)(5) + 4 z(0)(6) + 4 z(0)(7)
      + 4 z(0)(8) + 4 z(0)(9) + 6 z(0)(10) + 6 z(0)(11) + 6 z(0)(12)
      + 6 z(0)(13) + 8 z(0)(14) + 0 z(1)(0) + 0 z(1)(1) + 2 z(1)(4) + 2 z(1)(5)
      + 2 z(1)(6) + 2 z(1)(10) + 2 z(1)(11) + 2 z(1)(12) + 2 z(1)(14)
      + 0 z(2)(0) + 0 z(2)(1) + 0 z(2)(2) + 2 z(2)(3) + 2 z(2)(4) + 2 z(2)(5)
      + 4 z(2)(6) + 2 z(2)(8) + 2 z(2)(9) + 2 z(2)(10) + 4 z(2)(11)
      + 4 z(2)(12) + 2 z(2)(13) + 4 z(2)(14) + 0 z(3)(0) + 0 z(3)(1)
      + 0 z(3)(2) + 0 z(3)(3) + 2 z(3)(4) + 4 z(3)(5) + 2 z(3)(6) + 2 z(3)(7)
      + 2 z(3)(9) + 4 z(3)(10) + 2 z(3)(11) + 4 z(3)(12) + 2 z(3)(13)
      + 4 z(3)(14) + 0 z(4)(0) + 0 z(4)(1) + 0 z(4)(2) + 0 z(4)(3) + 0 z(4)(4)
      + 6 z(4)(5) + 6 z(4)(6) + 4 z(4)(7) + 4 z(4)(8) + 4 z(4)(9) + 8 z(4)(10)
      + 8 z(4)(11) + 8 z(4)(12) + 6 z(4)(13) + 10 z(4)(14) + 0 z(5)(0)
      + 0 z(5)(1) + 0 z(5)(2) + 0 z(5)(3) + 0 z(5)(4) + 0 z(5)(5) + 8 z(5)(6)
      + 4 z(5)(7) + 6 z(5)(8) + 6 z(5)(9) + 8 z(5)(10) + 10 z(5)(11)
      + 10 z(5)(12) + 8 z(5)(13) + 12 z(5)(14) + 0 z(6)(0) + 0 z(6)(1)
      + 0 z(6)(2) + 0 z(6)(3) + 0 z(6)(4) + 0 z(6)(5) + 0 z(6)(6) + 6 z(6)(7)
      + 4 z(6)(8) + 6 z(6)(9) + 10 z(6)(10) + 8 z(6)(11) + 10 z(6)(12)
      + 8 z(6)(13) + 12 z(6)(14) + 0 z(7)(0) + 0 z(7)(1) + 0 z(7)(2)
      + 0 z(7)(3) + 0 z(7)(4) + 0 z(7)(5) + 0 z(7)(6) + 0 z(7)(7) + 2 z(7)(8)
      + 2 z(7)(9) + 4 z(7)(10) + 6 z(7)(11) + 6 z(7)(12) + 2 z(7)(13)
      + 6 z(7)(14) + 0 z(8)(0) + 0 z(8)(1) + 0 z(8)(2) + 0 z(8)(3) + 0 z(8)(4)
      + 0 z(8)(5) + 0 z(8)(6) + 0 z(8)(7) + 0 z(8)(8) + 2 z(8)(9) + 6 z(8)(10)
      + 4 z(8)(11) + 6 z(8)(12) + 2 z(8)(13) + 6 z(8)(14) + 0 z(9)(0)
      + 0 z(9)(1) + 0 z(9)(2) + 0 z(9)(3) + 0 z(9)(4) + 0 z(9)(5) + 0 z(9)(6)
      + 0 z(9)(7) + 0 z(9)(8) + 0 z(9)(9) + 6 z(9)(10) + 6 z(9)(11)
      + 8 z(9)(12) + 4 z(9)(13) + 8 z(9)(14) + 0 z(10)(0) + 0 z(10)(1)
      + 0 z(10)(2) + 0 z(10)(3) + 0 z(10)(4) + 0 z(10)(5) + 0 z(10)(6)
      + 0 z(10)(7) + 0 z(10)(8) + 0 z(10)(9) + 0 z(10)(10) + 12 z(10)(11)
      + 12 z(10)(12) + 8 z(10)(13) + 14 z(10)(14) + 0 z(11)(0) + 0 z(11)(1)
      + 0 z(11)(2) + 0 z(11)(3) + 0 z(11)(4) + 0 z(11)(5) + 0 z(11)(6)
      + 0 z(11)(7) + 0 z(11)(8) + 0 z(11)(9) + 0 z(11)(10) + 0 z(11)(11)
      + 12 z(11)(12) + 8 z(11)(13) + 14 z(11)(14) + 0 z(12)(0) + 0 z(12)(1)
      + 0 z(12)(2) + 0 z(12)(3) + 0 z(12)(4) + 0 z(12)(5) + 0 z(12)(6)
      + 0 z(12)(7) + 0 z(12)(8) + 0 z(12)(9) + 0 z(12)(10) + 0 z(12)(11)
      + 0 z(12)(12) + 10 z(12)(13) + 16 z(12)(14) + 0 z(13)(0) + 0 z(13)(1)
      + 0 z(13)(2) + 0 z(13)(3) + 0 z(13)(4) + 0 z(13)(5) + 0 z(13)(6)
      + 0 z(13)(7) + 0 z(13)(8) + 0 z(13)(9) + 0 z(13)(10) + 0 z(13)(11)
      + 0 z(13)(12) + 0 z(13)(13) + 10 z(13)(14) + 0 z(14)(0) + 0 z(14)(1)
      + 0 z(14)(2) + 0 z(14)(3) + 0 z(14)(4) + 0 z(14)(5) + 0 z(14)(6)
      + 0 z(14)(7) + 0 z(14)(8) + 0 z(14)(9) + 0 z(14)(10) + 0 z(14)(11)
      + 0 z(14)(12) + 0 z(14)(13) + 0 z(14)(14)
Subject To
 x(0):      x(0) + x(4) + x(5) + x(6) + x(10) + x(11) + x(12) + x(14)  = 1
 x(1):      x(1) + x(4) + x(7) + x(8) + x(10) + x(11) + x(13) + x(14)  = 1
 x(2):      x(2) + x(5) + x(7) + x(9) + x(10) + x(12) + x(13) + x(14)  = 1
 x(3):      x(3) + x(6) + x(8) + x(9) + x(11) + x(12) + x(13) + x(14)  = 1
 z(0)(1):   - x(0) - x(1) + z(0)(1) >= -1
 z(0)(2):   - x(0) - x(2) + z(0)(2) >= -1
 z(0)(3):   - x(0) - x(3) + z(0)(3) >= -1
 z(0)(4):   - x(0) - x(4) + z(0)(4) >= -1
 z(0)(5):   - x(0) - x(5) + z(0)(5) >= -1
 z(0)(6):   - x(0) - x(6) + z(0)(6) >= -1
 z(0)(7):   - x(0) - x(7) + z(0)(7) >= -1
 z(0)(8):   - x(0) - x(8) + z(0)(8) >= -1
 z(0)(9):   - x(0) - x(9) + z(0)(9) >= -1
 z(0)(10):  - x(0) - x(10) + z(0)(10) >= -1
 z(0)(11):  - x(0) - x(11) + z(0)(11) >= -1
 z(0)(12):  - x(0) - x(12) + z(0)(12) >= -1
 z(0)(13):  - x(0) - x(13) + z(0)(13) >= -1
 z(0)(14):  - x(0) - x(14) + z(0)(14) >= -1
 z(1)(2):   - x(1) - x(2) + z(1)(2) >= -1
 z(1)(3):   - x(1) - x(3) + z(1)(3) >= -1
 z(1)(4):   - x(1) - x(4) + z(1)(4) >= -1
 z(1)(5):   - x(1) - x(5) + z(1)(5) >= -1
 z(1)(6):   - x(1) - x(6) + z(1)(6) >= -1
 z(1)(7):   - x(1) - x(7) + z(1)(7) >= -1
 z(1)(8):   - x(1) - x(8) + z(1)(8) >= -1
 z(1)(9):   - x(1) - x(9) + z(1)(9) >= -1
 z(1)(10):  - x(1) - x(10) + z(1)(10) >= -1
 z(1)(11):  - x(1) - x(11) + z(1)(11) >= -1
 z(1)(12):  - x(1) - x(12) + z(1)(12) >= -1
 z(1)(13):  - x(1) - x(13) + z(1)(13) >= -1
 z(1)(14):  - x(1) - x(14) + z(1)(14) >= -1
 z(2)(3):   - x(2) - x(3) + z(2)(3) >= -1
 z(2)(4):   - x(2) - x(4) + z(2)(4) >= -1
 z(2)(5):   - x(2) - x(5) + z(2)(5) >= -1
 z(2)(6):   - x(2) - x(6) + z(2)(6) >= -1
 z(2)(7):   - x(2) - x(7) + z(2)(7) >= -1
 z(2)(8):   - x(2) - x(8) + z(2)(8) >= -1
 z(2)(9):   - x(2) - x(9) + z(2)(9) >= -1
 z(2)(10):  - x(2) - x(10) + z(2)(10) >= -1
 z(2)(11):  - x(2) - x(11) + z(2)(11) >= -1
 z(2)(12):  - x(2) - x(12) + z(2)(12) >= -1
 z(2)(13):  - x(2) - x(13) + z(2)(13) >= -1
 z(2)(14):  - x(2) - x(14) + z(2)(14) >= -1
 z(3)(4):   - x(3) - x(4) + z(3)(4) >= -1
 z(3)(5):   - x(3) - x(5) + z(3)(5) >= -1
 z(3)(6):   - x(3) - x(6) + z(3)(6) >= -1
 z(3)(7):   - x(3) - x(7) + z(3)(7) >= -1
 z(3)(8):   - x(3) - x(8) + z(3)(8) >= -1
 z(3)(9):   - x(3) - x(9) + z(3)(9) >= -1
 z(3)(10):  - x(3) - x(10) + z(3)(10) >= -1
 z(3)(11):  - x(3) - x(11) + z(3)(11) >= -1
 z(3)(12):  - x(3) - x(12) + z(3)(12) >= -1
 z(3)(13):  - x(3) - x(13) + z(3)(13) >= -1
 z(3)(14):  - x(3) - x(14) + z(3)(14) >= -1
 z(4)(5):   - x(4) - x(5) + z(4)(5) >= -1
 z(4)(6):   - x(4) - x(6) + z(4)(6) >= -1
 z(4)(7):   - x(4) - x(7) + z(4)(7) >= -1
 z(4)(8):   - x(4) - x(8) + z(4)(8) >= -1
 z(4)(9):   - x(4) - x(9) + z(4)(9) >= -1
 z(4)(10):  - x(4) - x(10) + z(4)(10) >= -1
 z(4)(11):  - x(4) - x(11) + z(4)(11) >= -1
 z(4)(12):  - x(4) - x(12) + z(4)(12) >= -1
 z(4)(13):  - x(4) - x(13) + z(4)(13) >= -1
 z(4)(14):  - x(4) - x(14) + z(4)(14) >= -1
 z(5)(6):   - x(5) - x(6) + z(5)(6) >= -1
 z(5)(7):   - x(5) - x(7) + z(5)(7) >= -1
 z(5)(8):   - x(5) - x(8) + z(5)(8) >= -1
 z(5)(9):   - x(5) - x(9) + z(5)(9) >= -1
 z(5)(10):  - x(5) - x(10) + z(5)(10) >= -1
 z(5)(11):  - x(5) - x(11) + z(5)(11) >= -1
 z(5)(12):  - x(5) - x(12) + z(5)(12) >= -1
 z(5)(13):  - x(5) - x(13) + z(5)(13) >= -1
 z(5)(14):  - x(5) - x(14) + z(5)(14) >= -1
 z(6)(7):   - x(6) - x(7) + z(6)(7) >= -1
 z(6)(8):   - x(6) - x(8) + z(6)(8) >= -1
 z(6)(9):   - x(6) - x(9) + z(6)(9) >= -1
 z(6)(10):  - x(6) - x(10) + z(6)(10) >= -1
 z(6)(11):  - x(6) - x(11) + z(6)(11) >= -1
 z(6)(12):  - x(6) - x(12) + z(6)(12) >= -1
 z(6)(13):  - x(6) - x(13) + z(6)(13) >= -1
 z(6)(14):  - x(6) - x(14) + z(6)(14) >= -1
 z(7)(8):   - x(7) - x(8) + z(7)(8) >= -1
 z(7)(9):   - x(7) - x(9) + z(7)(9) >= -1
 z(7)(10):  - x(7) - x(10) + z(7)(10) >= -1
 z(7)(11):  - x(7) - x(11) + z(7)(11) >= -1
 z(7)(12):  - x(7) - x(12) + z(7)(12) >= -1
 z(7)(13):  - x(7) - x(13) + z(7)(13) >= -1
 z(7)(14):  - x(7) - x(14) + z(7)(14) >= -1
 z(8)(9):   - x(8) - x(9) + z(8)(9) >= -1
 z(8)(10):  - x(8) - x(10) + z(8)(10) >= -1
 z(8)(11):  - x(8) - x(11) + z(8)(11) >= -1
 z(8)(12):  - x(8) - x(12) + z(8)(12) >= -1
 z(8)(13):  - x(8) - x(13) + z(8)(13) >= -1
 z(8)(14):  - x(8) - x(14) + z(8)(14) >= -1
 z(9)(10):  - x(9) - x(10) + z(9)(10) >= -1
 z(9)(11):  - x(9) - x(11) + z(9)(11) >= -1
 z(9)(12):  - x(9) - x(12) + z(9)(12) >= -1
 z(9)(13):  - x(9) - x(13) + z(9)(13) >= -1
 z(9)(14):  - x(9) - x(14) + z(9)(14) >= -1
 z(10)(11): - x(10) - x(11) + z(10)(11) >= -1
 z(10)(12): - x(10) - x(12) + z(10)(12) >= -1
 z(10)(13): - x(10) - x(13) + z(10)(13) >= -1
 z(10)(14): - x(10) - x(14) + z(10)(14) >= -1
 z(11)(12): - x(11) - x(12) + z(11)(12) >= -1
 z(11)(13): - x(11) - x(13) + z(11)(13) >= -1
 z(11)(14): - x(11) - x(14) + z(11)(14) >= -1
 z(12)(13): - x(12) - x(13) + z(12)(13) >= -1
 z(12)(14): - x(12) - x(14) + z(12)(14) >= -1
 z(13)(14): - x(13) - x(14) + z(13)(14) >= -1
 xk(1):     - x(1) + z(0)(1) + z(1)(4) + z(1)(5) + z(1)(6) + z(1)(10)
            + z(1)(11) + z(1)(12) + z(1)(14)  = 0
 xk(2):     - x(2) + z(0)(2) + z(2)(4) + z(2)(5) + z(2)(6) + z(2)(10)
            + z(2)(11) + z(2)(12) + z(2)(14)  = 0
 xk(3):     - x(3) + z(0)(3) + z(3)(4) + z(3)(5) + z(3)(6) + z(3)(10)
            + z(3)(11) + z(3)(12) + z(3)(14)  = 0
 xk(7):     - x(7) + z(0)(7) + z(4)(7) + z(5)(7) + z(6)(7) + z(7)(10)
            + z(7)(11) + z(7)(12) + z(7)(14)  = 0
 xk(8):     - x(8) + z(0)(8) + z(4)(8) + z(5)(8) + z(6)(8) + z(8)(10)
            + z(8)(11) + z(8)(12) + z(8)(14)  = 0
 xk(9):     - x(9) + z(0)(9) + z(4)(9) + z(5)(9) + z(6)(9) + z(9)(10)
            + z(9)(11) + z(9)(12) + z(9)(14)  = 0
 xk(13):    - x(13) + z(0)(13) + z(4)(13) + z(5)(13) + z(6)(13) + z(10)(13)
            + z(11)(13) + z(12)(13) + z(13)(14)  = 0
 xk(0):     - x(0) + z(0)(1) + z(0)(4) + z(0)(7) + z(0)(8) + z(0)(10)
            + z(0)(11) + z(0)(13) + z(0)(14)  = 0
 xk(2):     - x(2) + z(1)(2) + z(2)(4) + z(2)(7) + z(2)(8) + z(2)(10)
            + z(2)(11) + z(2)(13) + z(2)(14)  = 0
 xk(3):     - x(3) + z(1)(3) + z(3)(4) + z(3)(7) + z(3)(8) + z(3)(10)
            + z(3)(11) + z(3)(13) + z(3)(14)  = 0
 xk(5):     - x(5) + z(1)(5) + z(4)(5) + z(5)(7) + z(5)(8) + z(5)(10)
            + z(5)(11) + z(5)(13) + z(5)(14)  = 0
 xk(6):     - x(6) + z(1)(6) + z(4)(6) + z(6)(7) + z(6)(8) + z(6)(10)
            + z(6)(11) + z(6)(13) + z(6)(14)  = 0
 xk(9):     - x(9) + z(1)(9) + z(4)(9) + z(7)(9) + z(8)(9) + z(9)(10)
            + z(9)(11) + z(9)(13) + z(9)(14)  = 0
 xk(12):    - x(12) + z(1)(12) + z(4)(12) + z(7)(12) + z(8)(12) + z(10)(12)
            + z(11)(12) + z(12)(13) + z(12)(14)  = 0
 xk(0):     - x(0) + z(0)(2) + z(0)(5) + z(0)(7) + z(0)(9) + z(0)(10)
            + z(0)(12) + z(0)(13) + z(0)(14)  = 0
 xk(1):     - x(1) + z(1)(2) + z(1)(5) + z(1)(7) + z(1)(9) + z(1)(10)
            + z(1)(12) + z(1)(13) + z(1)(14)  = 0
 xk(3):     - x(3) + z(2)(3) + z(3)(5) + z(3)(7) + z(3)(9) + z(3)(10)
            + z(3)(12) + z(3)(13) + z(3)(14)  = 0
 xk(4):     - x(4) + z(2)(4) + z(4)(5) + z(4)(7) + z(4)(9) + z(4)(10)
            + z(4)(12) + z(4)(13) + z(4)(14)  = 0
 xk(6):     - x(6) + z(2)(6) + z(5)(6) + z(6)(7) + z(6)(9) + z(6)(10)
            + z(6)(12) + z(6)(13) + z(6)(14)  = 0
 xk(8):     - x(8) + z(2)(8) + z(5)(8) + z(7)(8) + z(8)(9) + z(8)(10)
            + z(8)(12) + z(8)(13) + z(8)(14)  = 0
 xk(11):    - x(11) + z(2)(11) + z(5)(11) + z(7)(11) + z(9)(11) + z(10)(11)
            + z(11)(12) + z(11)(13) + z(11)(14)  = 0
 xk(0):     - x(0) + z(0)(3) + z(0)(6) + z(0)(8) + z(0)(9) + z(0)(11)
            + z(0)(12) + z(0)(13) + z(0)(14)  = 0
 xk(1):     - x(1) + z(1)(3) + z(1)(6) + z(1)(8) + z(1)(9) + z(1)(11)
            + z(1)(12) + z(1)(13) + z(1)(14)  = 0
 xk(2):     - x(2) + z(2)(3) + z(2)(6) + z(2)(8) + z(2)(9) + z(2)(11)
            + z(2)(12) + z(2)(13) + z(2)(14)  = 0
 xk(4):     - x(4) + z(3)(4) + z(4)(6) + z(4)(8) + z(4)(9) + z(4)(11)
            + z(4)(12) + z(4)(13) + z(4)(14)  = 0
 xk(5):     - x(5) + z(3)(5) + z(5)(6) + z(5)(8) + z(5)(9) + z(5)(11)
            + z(5)(12) + z(5)(13) + z(5)(14)  = 0
 xk(7):     - x(7) + z(3)(7) + z(6)(7) + z(7)(8) + z(7)(9) + z(7)(11)
            + z(7)(12) + z(7)(13) + z(7)(14)  = 0
 xk(10):    - x(10) + z(3)(10) + z(6)(10) + z(8)(10) + z(9)(10) + z(10)(11)
            + z(10)(12) + z(10)(13) + z(10)(14)  = 0
Bounds
 0 <= x(0) <= 1
 0 <= x(1) <= 1
 0 <= x(2) <= 1
 0 <= x(3) <= 1
 0 <= x(4) <= 1
 0 <= x(5) <= 1
 0 <= x(6) <= 1
 0 <= x(7) <= 1
 0 <= x(8) <= 1
 0 <= x(9) <= 1
 0 <= x(10) <= 1
 0 <= x(11) <= 1
 0 <= x(12) <= 1
 0 <= x(13) <= 1
 0 <= x(14) <= 1
 0 <= z(0)(0) <= 1
 0 <= z(0)(1) <= 1
 0 <= z(0)(2) <= 1
 0 <= z(0)(3) <= 1
 0 <= z(0)(4) <= 1
 0 <= z(0)(5) <= 1
 0 <= z(0)(6) <= 1
 0 <= z(0)(7) <= 1
 0 <= z(0)(8) <= 1
 0 <= z(0)(9) <= 1
 0 <= z(0)(10) <= 1
 0 <= z(0)(11) <= 1
 0 <= z(0)(12) <= 1
 0 <= z(0)(13) <= 1
 0 <= z(0)(14) <= 1
 0 <= z(1)(0) <= 1
 0 <= z(1)(1) <= 1
 0 <= z(1)(2) <= 1
 0 <= z(1)(3) <= 1
 0 <= z(1)(4) <= 1
 0 <= z(1)(5) <= 1
 0 <= z(1)(6) <= 1
 0 <= z(1)(7) <= 1
 0 <= z(1)(8) <= 1
 0 <= z(1)(9) <= 1
 0 <= z(1)(10) <= 1
 0 <= z(1)(11) <= 1
 0 <= z(1)(12) <= 1
 0 <= z(1)(13) <= 1
 0 <= z(1)(14) <= 1
 0 <= z(2)(0) <= 1
 0 <= z(2)(1) <= 1
 0 <= z(2)(2) <= 1
 0 <= z(2)(3) <= 1
 0 <= z(2)(4) <= 1
 0 <= z(2)(5) <= 1
 0 <= z(2)(6) <= 1
 0 <= z(2)(7) <= 1
 0 <= z(2)(8) <= 1
 0 <= z(2)(9) <= 1
 0 <= z(2)(10) <= 1
 0 <= z(2)(11) <= 1
 0 <= z(2)(12) <= 1
 0 <= z(2)(13) <= 1
 0 <= z(2)(14) <= 1
 0 <= z(3)(0) <= 1
 0 <= z(3)(1) <= 1
 0 <= z(3)(2) <= 1
 0 <= z(3)(3) <= 1
 0 <= z(3)(4) <= 1
 0 <= z(3)(5) <= 1
 0 <= z(3)(6) <= 1
 0 <= z(3)(7) <= 1
 0 <= z(3)(8) <= 1
 0 <= z(3)(9) <= 1
 0 <= z(3)(10) <= 1
 0 <= z(3)(11) <= 1
 0 <= z(3)(12) <= 1
 0 <= z(3)(13) <= 1
 0 <= z(3)(14) <= 1
 0 <= z(4)(0) <= 1
 0 <= z(4)(1) <= 1
 0 <= z(4)(2) <= 1
 0 <= z(4)(3) <= 1
 0 <= z(4)(4) <= 1
 0 <= z(4)(5) <= 1
 0 <= z(4)(6) <= 1
 0 <= z(4)(7) <= 1
 0 <= z(4)(8) <= 1
 0 <= z(4)(9) <= 1
 0 <= z(4)(10) <= 1
 0 <= z(4)(11) <= 1
 0 <= z(4)(12) <= 1
 0 <= z(4)(13) <= 1
 0 <= z(4)(14) <= 1
 0 <= z(5)(0) <= 1
 0 <= z(5)(1) <= 1
 0 <= z(5)(2) <= 1
 0 <= z(5)(3) <= 1
 0 <= z(5)(4) <= 1
 0 <= z(5)(5) <= 1
 0 <= z(5)(6) <= 1
 0 <= z(5)(7) <= 1
 0 <= z(5)(8) <= 1
 0 <= z(5)(9) <= 1
 0 <= z(5)(10) <= 1
 0 <= z(5)(11) <= 1
 0 <= z(5)(12) <= 1
 0 <= z(5)(13) <= 1
 0 <= z(5)(14) <= 1
 0 <= z(6)(0) <= 1
 0 <= z(6)(1) <= 1
 0 <= z(6)(2) <= 1
 0 <= z(6)(3) <= 1
 0 <= z(6)(4) <= 1
 0 <= z(6)(5) <= 1
 0 <= z(6)(6) <= 1
 0 <= z(6)(7) <= 1
 0 <= z(6)(8) <= 1
 0 <= z(6)(9) <= 1
 0 <= z(6)(10) <= 1
 0 <= z(6)(11) <= 1
 0 <= z(6)(12) <= 1
 0 <= z(6)(13) <= 1
 0 <= z(6)(14) <= 1
 0 <= z(7)(0) <= 1
 0 <= z(7)(1) <= 1
 0 <= z(7)(2) <= 1
 0 <= z(7)(3) <= 1
 0 <= z(7)(4) <= 1
 0 <= z(7)(5) <= 1
 0 <= z(7)(6) <= 1
 0 <= z(7)(7) <= 1
 0 <= z(7)(8) <= 1
 0 <= z(7)(9) <= 1
 0 <= z(7)(10) <= 1
 0 <= z(7)(11) <= 1
 0 <= z(7)(12) <= 1
 0 <= z(7)(13) <= 1
 0 <= z(7)(14) <= 1
 0 <= z(8)(0) <= 1
 0 <= z(8)(1) <= 1
 0 <= z(8)(2) <= 1
 0 <= z(8)(3) <= 1
 0 <= z(8)(4) <= 1
 0 <= z(8)(5) <= 1
 0 <= z(8)(6) <= 1
 0 <= z(8)(7) <= 1
 0 <= z(8)(8) <= 1
 0 <= z(8)(9) <= 1
 0 <= z(8)(10) <= 1
 0 <= z(8)(11) <= 1
 0 <= z(8)(12) <= 1
 0 <= z(8)(13) <= 1
 0 <= z(8)(14) <= 1
 0 <= z(9)(0) <= 1
 0 <= z(9)(1) <= 1
 0 <= z(9)(2) <= 1
 0 <= z(9)(3) <= 1
 0 <= z(9)(4) <= 1
 0 <= z(9)(5) <= 1
 0 <= z(9)(6) <= 1
 0 <= z(9)(7) <= 1
 0 <= z(9)(8) <= 1
 0 <= z(9)(9) <= 1
 0 <= z(9)(10) <= 1
 0 <= z(9)(11) <= 1
 0 <= z(9)(12) <= 1
 0 <= z(9)(13) <= 1
 0 <= z(9)(14) <= 1
 0 <= z(10)(0) <= 1
 0 <= z(10)(1) <= 1
 0 <= z(10)(2) <= 1
 0 <= z(10)(3) <= 1
 0 <= z(10)(4) <= 1
 0 <= z(10)(5) <= 1
 0 <= z(10)(6) <= 1
 0 <= z(10)(7) <= 1
 0 <= z(10)(8) <= 1
 0 <= z(10)(9) <= 1
 0 <= z(10)(10) <= 1
 0 <= z(10)(11) <= 1
 0 <= z(10)(12) <= 1
 0 <= z(10)(13) <= 1
 0 <= z(10)(14) <= 1
 0 <= z(11)(0) <= 1
 0 <= z(11)(1) <= 1
 0 <= z(11)(2) <= 1
 0 <= z(11)(3) <= 1
 0 <= z(11)(4) <= 1
 0 <= z(11)(5) <= 1
 0 <= z(11)(6) <= 1
 0 <= z(11)(7) <= 1
 0 <= z(11)(8) <= 1
 0 <= z(11)(9) <= 1
 0 <= z(11)(10) <= 1
 0 <= z(11)(11) <= 1
 0 <= z(11)(12) <= 1
 0 <= z(11)(13) <= 1
 0 <= z(11)(14) <= 1
 0 <= z(12)(0) <= 1
 0 <= z(12)(1) <= 1
 0 <= z(12)(2) <= 1
 0 <= z(12)(3) <= 1
 0 <= z(12)(4) <= 1
 0 <= z(12)(5) <= 1
 0 <= z(12)(6) <= 1
 0 <= z(12)(7) <= 1
 0 <= z(12)(8) <= 1
 0 <= z(12)(9) <= 1
 0 <= z(12)(10) <= 1
 0 <= z(12)(11) <= 1
 0 <= z(12)(12) <= 1
 0 <= z(12)(13) <= 1
 0 <= z(12)(14) <= 1
 0 <= z(13)(0) <= 1
 0 <= z(13)(1) <= 1
 0 <= z(13)(2) <= 1
 0 <= z(13)(3) <= 1
 0 <= z(13)(4) <= 1
 0 <= z(13)(5) <= 1
 0 <= z(13)(6) <= 1
 0 <= z(13)(7) <= 1
 0 <= z(13)(8) <= 1
 0 <= z(13)(9) <= 1
 0 <= z(13)(10) <= 1
 0 <= z(13)(11) <= 1
 0 <= z(13)(12) <= 1
 0 <= z(13)(13) <= 1
 0 <= z(13)(14) <= 1
 0 <= z(14)(0) <= 1
 0 <= z(14)(1) <= 1
 0 <= z(14)(2) <= 1
 0 <= z(14)(3) <= 1
 0 <= z(14)(4) <= 1
 0 <= z(14)(5) <= 1
 0 <= z(14)(6) <= 1
 0 <= z(14)(7) <= 1
 0 <= z(14)(8) <= 1
 0 <= z(14)(9) <= 1
 0 <= z(14)(10) <= 1
 0 <= z(14)(11) <= 1
 0 <= z(14)(12) <= 1
 0 <= z(14)(13) <= 1
 0 <= z(14)(14) <= 1
End
